Solver command line: ['C:\\gurobi1002\\win64\\bin\\gurobi.bat']

Set parameter Username
Academic license - for non-commercial use only - expires 2024-08-20
Read LP format model from file C:\Users\mhafeman\AppData\Local\Temp\tmpe95ybylx.pyomo.lp
Reading time = 4.72 seconds
objective: 992593 rows, 931103 columns, 2468290 nonzeros
Set parameter TimeLimit to value 1800
Set parameter MIPGap to value 0.01
Gurobi Optimizer version 10.0.2 build v10.0.2rc0 (win64)

CPU model: AMD Ryzen 7 3800X 8-Core Processor, instruction set [SSE2|AVX|AVX2]
Thread count: 8 physical cores, 16 logical processors, using up to 16 threads

Optimize a model with 992593 rows, 931103 columns and 2468290 nonzeros
Model fingerprint: 0xaf958d5b
Model has 17567 quadratic constraints
Variable types: 790560 continuous, 140543 integer (122976 binary)
Coefficient statistics:
  Matrix range     [1e-04, 3e+02]
  QMatrix range    [1e+00, 3e+00]
  QLMatrix range   [1e+00, 1e+00]
  Objective range  [1e-02, 4e+02]
  Bounds range     [1e+00, 3e+00]
  RHS range        [1e-03, 1e+04]
Presolve removed 808130 rows and 737857 columns (presolve time = 9s) ...
Presolve removed 790564 rows and 729074 columns
Presolve time: 9.42s
Presolved: 237165 rows, 210813 columns, 641226 nonzeros
Variable types: 122974 continuous, 87839 integer (87839 binary)
Deterministic concurrent LP optimizer: primal simplex, dual simplex, and barrier
Showing barrier log only...

Root barrier log...

Ordering time: 0.02s

Barrier statistics:
 AA' NZ     : 2.372e+05
 Factor NZ  : 6.370e+05 (roughly 80 MB of memory)
 Factor Ops : 4.619e+06 (less than 1 second per iteration)
 Threads    : 5

                  Objective                Residual
Iter       Primal          Dual         Primal    Dual     Compl     Time
   0   4.30023318e+08 -1.05531994e+10  3.72e+01 8.39e+02  1.03e+05    11s
   1   5.98760257e+07 -2.15789660e+09  6.01e-02 5.46e-12  9.20e+03    11s
   2   4.22108579e+07 -1.76638334e+08  1.25e-12 6.33e+00  9.01e+02    11s
   3   1.00215758e+07 -6.44946758e+07  8.38e-13 1.25e-12  3.07e+02    11s
   4   1.43204365e+06 -2.57295202e+07  8.38e-13 6.32e-01  1.12e+02    11s
   5  -1.91504322e+06 -1.88267626e+07  1.34e-12 1.02e-01  6.95e+01    11s

Barrier performed 5 iterations in 11.43 seconds (7.50 work units)
Barrier solve interrupted - model solved by another algorithm

Concurrent spin time: 0.16s (can be avoided by choosing Method=3)

Solved with dual simplex

Root simplex log...

Iteration    Objective       Primal Inf.    Dual Inf.      Time
   18691   -7.6825815e+06   0.000000e+00   0.000000e+00     12s

Use crossover to convert LP symmetric solution to basic solution...

Root crossover log...

       0 DPushes remaining with DInf 0.0000000e+00                12s

    3049 PPushes remaining with PInf 0.0000000e+00                12s
       0 PPushes remaining with PInf 0.0000000e+00                12s

  Push phase complete: Pinf 0.0000000e+00, Dinf 2.8592239e-10     12s


Root simplex log...

Iteration    Objective       Primal Inf.    Dual Inf.      Time
   34845   -7.6825815e+06   0.000000e+00   0.000000e+00     12s
   34845   -7.6825815e+06   0.000000e+00   0.000000e+00     12s

Root relaxation: objective -7.682582e+06, 34845 iterations, 1.75 seconds (1.30 work units)

    Nodes    |    Current Node    |     Objective Bounds      |     Work
 Expl Unexpl |  Obj  Depth IntInf | Incumbent    BestBd   Gap | It/Node Time

     0     0 -7682581.5    0  791          - -7682581.5      -     -   16s
     0     0 -7679293.2    0 1106          - -7679293.2      -     -   21s
H    0     0                    -7414136.540 -7679293.2  3.58%     -   23s
     0     0 -7676560.9    0 1165 -7414136.5 -7676560.9  3.54%     -   24s
     0     0 -7676560.9    0 1166 -7414136.5 -7676560.9  3.54%     -   24s
     0     0 -7667558.4    0  994 -7414136.5 -7667558.4  3.42%     -   27s
H    0     0                    -7446400.948 -7667558.4  2.97%     -   28s
H    0     0                    -7448252.496 -7667558.4  2.94%     -   28s
     0     0 -7665735.8    0  961 -7448252.5 -7665735.8  2.92%     -   29s
     0     0 -7665724.2    0  969 -7448252.5 -7665724.2  2.92%     -   29s
     0     0 -7660848.9    0  929 -7448252.5 -7660848.9  2.85%     -   33s
H    0     0                    -7474732.436 -7660848.9  2.49%     -   35s
H    0     0                    -7571677.712 -7660848.9  1.18%     -   36s
     0     0 -7660227.9    0  938 -7571677.7 -7660227.9  1.17%     -   36s
     0     0 -7660076.3    0  948 -7571677.7 -7660076.3  1.17%     -   37s
     0     0 -7659131.7    0  946 -7571677.7 -7659131.7  1.16%     -   40s
H    0     0                    -7571899.114 -7659131.7  1.15%     -   42s
     0     0 -7658812.0    0  951 -7571899.1 -7658812.0  1.15%     -   42s
     0     0 -7658710.0    0  971 -7571899.1 -7658710.0  1.15%     -   43s
     0     0 -7658114.5    0  990 -7571899.1 -7658114.5  1.14%     -   44s
H    0     0                    -7576311.777 -7658114.5  1.08%     -   46s
     0     0 -7657876.9    0  978 -7576311.8 -7657876.9  1.08%     -   46s
     0     0 -7657864.7    0  995 -7576311.8 -7657864.7  1.08%     -   46s
     0     0 -7657739.8    0  990 -7576311.8 -7657739.8  1.07%     -   47s
H    0     0                    -7576417.789 -7657739.8  1.07%     -   49s
     0     0 -7657709.7    0 1001 -7576417.8 -7657709.7  1.07%     -   49s
     0     0 -7657519.1    0  980 -7576417.8 -7657519.1  1.07%     -   51s
H    0     0                    -7577074.519 -7657519.1  1.06%     -   53s
     0     0 -7657504.8    0  988 -7577074.5 -7657504.8  1.06%     -   53s
     0     0 -7657374.4    0  989 -7577074.5 -7657374.4  1.06%     -   54s
     0     0 -7657374.4    0  854 -7577074.5 -7657374.4  1.06%     -   57s
H    0     0                    -7577578.002 -7657374.4  1.05%     -   65s
H    0     2                    -7581297.318 -7657374.4  1.00%     -   76s
     0     2 -7657374.4    0  840 -7581297.3 -7657374.4  1.00%     -   76s
     7    16 -7654683.2    3  918 -7581297.3 -7657216.1  1.00%   271   80s

Cutting planes:
  Gomory: 65
  Lift-and-project: 16
  Cover: 195
  Implied bound: 39
  MIR: 812
  Flow cover: 422
  Network: 1
  RLT: 31
  Relax-and-lift: 55

Explored 15 nodes (62487 simplex iterations) in 80.87 seconds (68.72 work units)
Thread count was 16 (of 16 available processors)

Solution count 10: -7.5813e+06 -7.57758e+06 -7.57707e+06 ... -7.4464e+06

Optimal solution found (tolerance 1.00e-02)
Best objective -7.581297318222e+06, best bound -7.657075523651e+06, gap 0.9995%

